Grasp exp. instance_n_15_m_5_id_2.lp tipoLifted 0 szPool 5 nIteration 50 alpha 0.2 
Academic license - for non-commercial use only
Read LP format model from file ../input/instancesGenerated/instance_n_15_m_5_id_2.lp
Reading time = 0.00 seconds
: 5 rows, 15 columns, 75 nonzeros
Optimize a model with 5 rows, 15 columns and 75 nonzeros
Variable types: 0 continuous, 15 integer (15 binary)
Coefficient statistics:
  Matrix range     [1e+00, 1e+01]
  Objective range  [1e+00, 1e+01]
  Bounds range     [1e+00, 1e+00]
  RHS range        [4e+01, 5e+01]
Found heuristic solution: objective 36.0000000

Explored 0 nodes (0 simplex iterations) in 0.00 seconds
Thread count was 1 (of 8 available processors)

Solution count 1: 36 
No other solutions better than 0

Solution limit reached
Best objective 3.600000000000e+01, best bound -, gap -
C_1:	 6.00 x_1  = 1.000000 + 6.00 x_2  = 0.000000 + 1.00 x_3  = 0.000000 + 4.00 x_4  = 1.000000 + 5.00 x_5  = 0.101545 + 9.00 x_6  = 0.253863 + 9.00 x_7  = 0.112583 + 2.00 x_8  = 1.000000 + 4.00 x_9  = 0.000000 + 1.00 x_10  = 1.000000 + 6.00 x_11  = 1.000000 + 2.00 x_12  = 0.000000 + 7.00 x_13  = 1.000000 + 8.00 x_14  = 0.024283 + 9.00 x_15  = 1.000000 <= 39.00
C_2:	 4.00 x_1  = 1.000000 + 9.00 x_2  = 0.000000 + 2.00 x_3  = 0.000000 + 7.00 x_4  = 1.000000 + 8.00 x_5  = 0.101545 + 7.00 x_6  = 0.253863 + 3.00 x_7  = 0.112583 + 7.00 x_8  = 1.000000 + 7.00 x_9  = 0.000000 + 10.00 x_10  = 1.000000 + 6.00 x_11  = 1.000000 + 5.00 x_12  = 0.000000 + 2.00 x_13  = 1.000000 + 3.00 x_14  = 0.024283 + 1.00 x_15  = 1.000000 <= 40.00
C_3:	 8.00 x_1  = 1.000000 + 9.00 x_2  = 0.000000 + 8.00 x_3  = 0.000000 + 1.00 x_4  = 1.000000 + 4.00 x_5  = 0.101545 + 2.00 x_6  = 0.253863 + 9.00 x_7  = 0.112583 + 5.00 x_8  = 1.000000 + 5.00 x_9  = 0.000000 + 4.00 x_10  = 1.000000 + 5.00 x_11  = 1.000000 + 3.00 x_12  = 0.000000 + 5.00 x_13  = 1.000000 + 3.00 x_14  = 0.024283 + 10.00 x_15  = 1.000000 <= 40.00
C_4:	 6.00 x_1  = 1.000000 + 7.00 x_2  = 0.000000 + 8.00 x_3  = 0.000000 + 7.00 x_4  = 1.000000 + 3.00 x_5  = 0.101545 + 7.00 x_6  = 0.253863 + 6.00 x_7  = 0.112583 + 7.00 x_8  = 1.000000 + 5.00 x_9  = 0.000000 + 2.00 x_10  = 1.000000 + 9.00 x_11  = 1.000000 + 1.00 x_12  = 0.000000 + 7.00 x_13  = 1.000000 + 10.00 x_14  = 0.024283 + 3.00 x_15  = 1.000000 <= 44.00
C_5:	 9.00 x_1  = 1.000000 + 9.00 x_2  = 0.000000 + 3.00 x_3  = 0.000000 + 7.00 x_4  = 1.000000 + 9.00 x_5  = 0.101545 + 9.00 x_6  = 0.253863 + 10.00 x_7  = 0.112583 + 10.00 x_8  = 1.000000 + 3.00 x_9  = 0.000000 + 7.00 x_10  = 1.000000 + 3.00 x_11  = 1.000000 + 9.00 x_12  = 0.000000 + 9.00 x_13  = 1.000000 + 10.00 x_14  = 0.024283 + 1.00 x_15  = 1.000000 <= 54.00
Solution initial: 64.344371 
Number Constraints Used in Cover:5
GRASP Method!
Number cuts repeat: 0
value: 64.344371
Number Constraints Used in Cover:11
GRASP Method!
Number cuts repeat: 0
value: 63.920306
Number Constraints Used in Cover:22
GRASP Method!
Number cuts repeat: 0
value: 63.920306
Number Constraints Used in Cover:28
GRASP Method!
Number cuts repeat: 0
value: 63.920306
Number Constraints Used in Cover:41
GRASP Method!
Number cuts repeat: 0
value: 63.920306
Number Constraints Used in Cover:49
GRASP Method!
Number cuts repeat: 0
value: 63.920306
Number Constraints Used in Cover:64
GRASP Method!
Number cuts repeat: 0
value: 63.774890
Number Constraints Used in Cover:79
GRASP Method!
Number cuts repeat: 0
value: 63.774890
Number Constraints Used in Cover:93
GRASP Method!
Number cuts repeat: 0
value: 63.774890
Number Constraints Used in Cover:101
GRASP Method!
Number cuts repeat: 0
value: 63.774890
Number Constraints Used in Cover:122
GRASP Method!
Number cuts repeat: 0
value: 63.774890
Number Constraints Used in Cover:137
GRASP Method!
Number cuts repeat: 0
value: 63.774890
Number Constraints Used in Cover:156
GRASP Method!
Number cuts repeat: 0
value: 63.774890
Number Constraints Used in Cover:171
GRASP Method!
Number cuts repeat: 0
value: 63.774890
Number Constraints Used in Cover:179
GRASP Method!
Number cuts repeat: 0
value: 63.774890
Number Constraints Used in Cover:192
GRASP Method!
Number cuts repeat: 0
value: 63.774890
Number Constraints Used in Cover:211
GRASP Method!
Number cuts repeat: 0
value: 63.774890
Number Constraints Used in Cover:222
GRASP Method!
Number cuts repeat: 0
value: 63.774890
Number Constraints Used in Cover:229
GRASP Method!
Number cuts repeat: 0
value: 63.774890
Number Constraints Used in Cover:237
GRASP Method!
Number cuts repeat: 0
value: 63.774890
Number Constraints Used in Cover:242
GRASP Method!
Number cuts repeat: 0
value: 63.774890
Number Constraints Used in Cover:250
GRASP Method!
Number cuts repeat: 0
value: 63.774890
Number Constraints Used in Cover:259
GRASP Method!
Number cuts repeat: 0
value: 63.774890
Number Constraints Used in Cover:269
GRASP Method!
Number cuts repeat: 0
value: 63.774890
Number Constraints Used in Cover:277
GRASP Method!
Number cuts repeat: 0
value: 63.774890
Number Constraints Used in Cover:287
GRASP Method!
Number cuts repeat: 0
value: 63.774890
Number Constraints Used in Cover:299
GRASP Method!
Number cuts repeat: 0
value: 63.774890
Number Constraints Used in Cover:304
GRASP Method!
Number cuts repeat: 0
value: 63.774890
Number Constraints Used in Cover:313
GRASP Method!
Number cuts repeat: 0
value: 63.774890
Number Constraints Used in Cover:331
GRASP Method!
Number cuts repeat: 0
value: 63.774890
Number Constraints Used in Cover:338
GRASP Method!
Number cuts repeat: 0
value: 63.774890
Number Constraints Used in Cover:354
GRASP Method!
Number cuts repeat: 0
value: 63.774890
Number Constraints Used in Cover:367
GRASP Method!
Number cuts repeat: 0
value: 63.774890
Number Constraints Used in Cover:376
GRASP Method!
Number cuts repeat: 0
value: 63.774890
Number Constraints Used in Cover:383
GRASP Method!
Number cuts repeat: 0
value: 63.774890
Number Constraints Used in Cover:399
GRASP Method!
Number cuts repeat: 0
value: 63.774890
Number Constraints Used in Cover:403
GRASP Method!
Number cuts repeat: 0
value: 63.774890
Number Constraints Used in Cover:411
GRASP Method!
Number cuts repeat: 0
value: 63.774890
Number Constraints Used in Cover:419
GRASP Method!
Number cuts repeat: 0
value: 63.774890
Number Constraints Used in Cover:428
GRASP Method!
Number cuts repeat: 0
value: 63.774890
Number Constraints Used in Cover:435
GRASP Method!
Number cuts repeat: 0
value: 63.774890
Number Constraints Used in Cover:442
GRASP Method!
Number cuts repeat: 0
value: 63.774890
Number Constraints Used in Cover:449
GRASP Method!
Number cuts repeat: 0
value: 63.774890
Number Constraints Used in Cover:459
GRASP Method!
Number cuts repeat: 0
value: 63.774890
Number Constraints Used in Cover:463
GRASP Method!
Number cuts repeat: 0
value: 63.774890
Number Constraints Used in Cover:479
GRASP Method!
Number cuts repeat: 0
value: 63.774890
Number Constraints Used in Cover:485
GRASP Method!
Number cuts repeat: 0
value: 63.774890
Number Constraints Used in Cover:488
GRASP Method!
Number cuts repeat: 0
value: 63.774890
Number Constraints Used in Cover:494
GRASP Method!
Number cuts repeat: 0
value: 63.774890
Number Constraints Used in Cover:496
GRASP Method!
Number cuts repeat: 0
value: 63.774890
Number Constraints Used in Cover:502
GRASP Method!
Number cuts repeat: 0
value: 63.774890
Number Constraints Used in Cover:514
GRASP Method!
Number cuts repeat: 0
value: 63.774890
Number Constraints Used in Cover:519
GRASP Method!
Number cuts repeat: 0
value: 63.774890
Number Constraints Used in Cover:524
GRASP Method!
Number cuts repeat: 0
value: 63.774890
Number Constraints Used in Cover:535
GRASP Method!
Number cuts repeat: 0
value: 63.774890
Number Constraints Used in Cover:542
GRASP Method!
Number cuts repeat: 0
value: 63.774890
Number Constraints Used in Cover:543
GRASP Method!
Number cuts repeat: 0
value: 63.774890
Number Constraints Used in Cover:550
GRASP Method!
Number cuts repeat: 0
value: 63.774890
Number Constraints Used in Cover:558
GRASP Method!
Number cuts repeat: 0
value: 63.774890
Number Constraints Used in Cover:566
GRASP Method!
Number cuts repeat: 0
value: 63.774890
Number Constraints Used in Cover:573
GRASP Method!
Number cuts repeat: 0
value: 63.774890
Number Constraints Used in Cover:574
GRASP Method!
Number cuts repeat: 0
value: 63.774890
Number Constraints Used in Cover:575
GRASP Method!
Number cuts repeat: 0
value: 63.774890
Number Constraints Used in Cover:583
GRASP Method!
Number cuts repeat: 0
value: 63.774890
Number Constraints Used in Cover:588
GRASP Method!
Number cuts repeat: 0
value: 63.774890
Number Constraints Used in Cover:593
GRASP Method!
Number cuts repeat: 0
value: 63.774890
Number Constraints Used in Cover:600
GRASP Method!
Number cuts repeat: 0
value: 63.774890
Number Constraints Used in Cover:606
GRASP Method!
Number cuts repeat: 0
value: 63.774890
Number Constraints Used in Cover:606
GRASP Method!
Number cuts repeat: 0
value: 63.774890
Number Constraints Used in Cover:614
GRASP Method!
Number cuts repeat: 0
value: 63.774890
Number Constraints Used in Cover:617
GRASP Method!
Number cuts repeat: 0
value: 63.774890
Number Constraints Used in Cover:621
GRASP Method!
Number cuts repeat: 0
value: 63.774890
Number Constraints Used in Cover:624
GRASP Method!
Number cuts repeat: 0
value: 63.774890
Number Constraints Used in Cover:631
GRASP Method!
Number cuts repeat: 0
value: 63.774890
Number Constraints Used in Cover:636
GRASP Method!
Number cuts repeat: 0
value: 63.774890
Number Constraints Used in Cover:641
GRASP Method!
Number cuts repeat: 0
value: 63.774890
Number Constraints Used in Cover:648
GRASP Method!
Number cuts repeat: 0
value: 63.774890
Number Constraints Used in Cover:658
GRASP Method!
Number cuts repeat: 0
value: 63.774890
Number Constraints Used in Cover:662
GRASP Method!
Number cuts repeat: 0
value: 63.774890
Number Constraints Used in Cover:667
GRASP Method!
Number cuts repeat: 0
value: 63.774890
Number Constraints Used in Cover:669
GRASP Method!
Number cuts repeat: 0
value: 63.774890
Number Constraints Used in Cover:670
GRASP Method!
Number cuts repeat: 0
value: 63.774890
Number Cuts Final: 670
